65
1 0 3
2 0 2
2 1 5
3 0 3
3 1 2
3 2 1
4 0 2
4 1 5
4 2 4
4 3 3
5 0 4
5 1 2
5 2 4
5 3 2
5 4 5
6 0 2
6 1 1
6 2 5
6 3 4
6 4 5
6 5 1
7 0 4
7 1 4
7 2 5
7 3 2
7 4 1
7 5 1
7 6 2
8 0 4
8 1 5
8 2 1
8 3 1
8 4 1
8 5 3
8 6 4
8 7 2
9 0 4
9 1 1
9 2 4
9 3 5
9 4 4
9 5 5
9 6 5
9 7 4
9 8 1
10 0 5
10 1 3
10 2 4
10 3 5
10 4 2
10 5 3
10 6 5
10 7 4
10 8 5
10 9 3
11 0 2
11 1 2
11 2 2
11 3 4
11 4 4
11 5 3
11 6 4
11 7 4
11 8 2
11 9 1
11 10 3
12 0 3
12 1 4
12 2 1
12 3 4
12 4 3
12 5 3
12 6 1
12 7 1
12 8 5
12 9 3
12 10 5
12 11 5
13 0 2
13 1 4
13 2 1
13 3 3
13 4 3
13 5 2
13 6 2
13 7 3
13 8 1
13 9 5
13 10 2
13 11 4
13 12 4
14 0 2
14 1 3
14 2 1
14 3 5
14 4 3
14 5 5
14 6 1
14 7 2
14 8 2
14 9 4
14 10 4
14 11 1
14 12 3
14 13 2
15 0 2
15 1 3
15 2 5
15 3 5
15 4 5
15 5 5
15 6 2
15 7 4
15 8 2
15 9 2
15 10 2
15 11 4
15 12 1
15 13 2
15 14 3
16 0 1
16 1 4
16 2 5
16 3 5
16 4 2
16 5 2
16 6 4
16 7 5
16 8 1
16 9 4
16 10 2
16 11 2
16 12 3
16 13 2
16 14 1
16 15 1
17 0 3
17 1 4
17 2 4
17 3 4
17 4 2
17 5 2
17 6 1
17 7 2
17 8 4
17 9 2
17 10 3
17 11 3
17 12 4
17 13 1
17 14 3
17 15 2
17 16 4
18 0 5
18 1 3
18 2 3
18 3 3
18 4 2
18 5 2
18 6 3
18 7 5
18 8 2
18 9 1
18 10 1
18 11 1
18 12 4
18 13 2
18 14 2
18 15 4
18 16 4
18 17 4
19 0 5
19 1 4
19 2 1
19 3 5
19 4 2
19 5 1
19 6 5
19 7 2
19 8 5
19 9 1
19 10 2
19 11 5
19 12 4
19 13 5
19 14 2
19 15 3
19 16 1
19 17 1
19 18 3
20 0 4
20 1 1
20 2 3
20 3 2
20 4 4
20 5 5
20 6 3
20 7 1
20 8 2
20 9 2
20 10 1
20 11 1
20 12 3
20 13 2
20 14 4
20 15 5
20 16 5
20 17 1
20 18 3
20 19 3
21 0 4
21 1 1
21 2 4
21 3 5
21 4 4
21 5 5
21 6 5
21 7 5
21 8 1
21 9 1
21 10 2
21 11 5
21 12 5
21 13 5
21 14 1
21 15 5
21 16 5
21 17 4
21 18 1
21 19 1
21 20 5
22 0 4
22 1 5
22 2 3
22 3 2
22 4 2
22 5 5
22 6 2
22 7 5
22 8 1
22 9 3
22 10 5
22 11 2
22 12 1
22 13 3
22 14 5
22 15 3
22 16 1
22 17 1
22 18 2
22 19 3
22 20 2
22 21 2
23 0 2
23 1 5
23 2 5
23 3 2
23 4 4
23 5 1
23 6 3
23 7 3
23 8 1
23 9 2
23 10 1
23 11 4
23 12 2
23 13 1
23 14 5
23 15 1
23 16 4
23 17 2
23 18 4
23 19 4
23 20 1
23 21 2
23 22 4
24 0 4
24 1 2
24 2 4
24 3 4
24 4 2
24 5 5
24 6 4
24 7 4
24 8 4
24 9 5
24 10 5
24 11 5
24 12 4
24 13 2
24 14 2
24 15 1
24 16 4
24 17 2
24 18 4
24 19 3
24 20 1
24 21 1
24 22 5
24 23 3
25 0 2
25 1 2
25 2 1
25 3 5
25 4 3
25 5 4
25 6 1
25 7 1
25 8 2
25 9 2
25 10 1
25 11 3
25 12 3
25 13 1
25 14 1
25 15 4
25 16 1
25 17 1
25 18 2
25 19 3
25 20 2
25 21 5
25 22 4
25 23 2
25 24 2
26 0 3
26 1 3
26 2 3
26 3 2
26 4 1
26 5 1
26 6 1
26 7 4
26 8 3
26 9 1
26 10 2
26 11 1
26 12 3
26 13 1
26 14 3
26 15 3
26 16 3
26 17 5
26 18 1
26 19 5
26 20 2
26 21 3
26 22 5
26 23 5
26 24 2
26 25 3
27 0 1
27 1 5
27 2 3
27 3 5
27 4 4
27 5 4
27 6 4
27 7 5
27 8 1
27 9 2
27 10 3
27 11 2
27 12 1
27 13 3
27 14 1
27 15 1
27 16 2
27 17 2
27 18 2
27 19 1
27 20 2
27 21 5
27 22 3
27 23 2
27 24 1
27 25 4
27 26 1
28 0 3
28 1 3
28 2 3
28 3 1
28 4 5
28 5 2
28 6 4
28 7 1
28 8 5
28 9 3
28 10 2
28 11 1
28 12 4
28 13 3
28 14 4
28 15 1
28 16 3
28 17 1
28 18 4
28 19 1
28 20 1
28 21 1
28 22 1
28 23 1
28 24 4
28 25 2
28 26 1
28 27 2
29 0 1
29 1 2
29 2 5
29 3 2
29 4 5
29 5 2
29 6 5
29 7 2
29 8 3
29 9 1
29 10 2
29 11 1
29 12 3
29 13 2
29 14 5
29 15 1
29 16 3
29 17 2
29 18 2
29 19 3
29 20 2
29 21 5
29 22 3
29 23 1
29 24 2
29 25 4
29 26 2
29 27 5
29 28 2
30 0 1
30 1 4
30 2 4
30 3 1
30 4 2
30 5 1
30 6 4
30 7 2
30 8 2
30 9 5
30 10 4
30 11 2
30 12 4
30 13 5
30 14 1
30 15 2
30 16 1
30 17 5
30 18 1
30 19 2
30 20 2
30 21 2
30 22 3
30 23 1
30 24 5
30 25 5
30 26 5
30 27 2
30 28 3
30 29 3
31 0 2
31 1 2
31 2 3
31 3 5
31 4 2
31 5 4
31 6 4
31 7 4
31 8 3
31 9 4
31 10 4
31 11 5
31 12 5
31 13 5
31 14 2
31 15 3
31 16 4
31 17 5
31 18 4
31 19 1
31 20 3
31 21 3
31 22 5
31 23 5
31 24 5
31 25 3
31 26 1
31 27 5
31 28 1
31 29 5
31 30 2
32 0 2
32 1 1
32 2 5
32 3 1
32 4 1
32 5 5
32 6 4
32 7 4
32 8 3
32 9 2
32 10 3
32 11 2
32 12 3
32 13 4
32 14 2
32 15 2
32 16 5
32 17 3
32 18 1
32 19 4
32 20 1
32 21 4
32 22 2
32 23 5
32 24 1
32 25 1
32 26 2
32 27 1
32 28 5
32 29 5
32 30 1
32 31 5
33 0 3
33 1 4
33 2 3
33 3 2
33 4 4
33 5 1
33 6 1
33 7 5
33 8 1
33 9 2
33 10 5
33 11 3
33 12 4
33 13 3
33 14 1
33 15 4
33 16 3
33 17 1
33 18 1
33 19 1
33 20 1
33 21 3
33 22 5
33 23 4
33 24 3
33 25 1
33 26 4
33 27 1
33 28 3
33 29 5
33 30 5
33 31 1
33 32 3
34 0 3
34 1 2
34 2 2
34 3 3
34 4 2
34 5 1
34 6 2
34 7 1
34 8 5
34 9 3
34 10 4
34 11 2
34 12 1
34 13 1
34 14 2
34 15 3
34 16 5
34 17 4
34 18 4
34 19 4
34 20 3
34 21 1
34 22 4
34 23 2
34 24 2
34 25 1
34 26 2
34 27 3
34 28 2
34 29 3
34 30 2
34 31 1
34 32 5
34 33 1
35 0 5
35 1 5
35 2 2
35 3 2
35 4 2
35 5 3
35 6 2
35 7 3
35 8 3
35 9 3
35 10 1
35 11 5
35 12 4
35 13 2
35 14 3
35 15 3
35 16 5
35 17 1
35 18 3
35 19 5
35 20 4
35 21 5
35 22 2
35 23 3
35 24 1
35 25 2
35 26 1
35 27 5
35 28 2
35 29 3
35 30 2
35 31 5
35 32 3
35 33 1
35 34 2
36 0 4
36 1 3
36 2 4
36 3 2
36 4 5
36 5 5
36 6 1
36 7 4
36 8 3
36 9 2
36 10 1
36 11 5
36 12 3
36 13 2
36 14 3
36 15 4
36 16 3
36 17 1
36 18 2
36 19 5
36 20 1
36 21 5
36 22 3
36 23 5
36 24 5
36 25 4
36 26 4
36 27 5
36 28 5
36 29 2
36 30 3
36 31 2
36 32 1
36 33 5
36 34 1
36 35 4
37 0 4
37 1 5
37 2 5
37 3 1
37 4 2
37 5 3
37 6 1
37 7 1
37 8 4
37 9 5
37 10 4
37 11 4
37 12 1
37 13 4
37 14 2
37 15 1
37 16 2
37 17 2
37 18 2
37 19 1
37 20 3
37 21 3
37 22 3
37 23 3
37 24 2
37 25 5
37 26 5
37 27 5
37 28 3
37 29 5
37 30 3
37 31 5
37 32 2
37 33 1
37 34 2
37 35 2
37 36 2
38 0 4
38 1 5
38 2 2
38 3 2
38 4 4
38 5 3
38 6 4
38 7 5
38 8 2
38 9 3
38 10 5
38 11 4
38 12 4
38 13 3
38 14 2
38 15 4
38 16 2
38 17 1
38 18 2
38 19 3
38 20 2
38 21 3
38 22 2
38 23 5
38 24 4
38 25 3
38 26 5
38 27 4
38 28 2
38 29 5
38 30 5
38 31 2
38 32 2
38 33 1
38 34 5
38 35 2
38 36 5
38 37 4
39 0 4
39 1 5
39 2 5
39 3 2
39 4 3
39 5 5
39 6 2
39 7 1
39 8 4
39 9 2
39 10 1
39 11 4
39 12 4
39 13 1
39 14 5
39 15 3
39 16 4
39 17 1
39 18 2
39 19 3
39 20 1
39 21 1
39 22 1
39 23 3
39 24 1
39 25 4
39 26 2
39 27 3
39 28 5
39 29 5
39 30 1
39 31 5
39 32 5
39 33 1
39 34 4
39 35 4
39 36 4
39 37 5
39 38 3
40 0 5
40 1 3
40 2 3
40 3 2
40 4 4
40 5 1
40 6 2
40 7 1
40 8 1
40 9 4
40 10 1
40 11 3
40 12 2
40 13 1
40 14 3
40 15 1
40 16 1
40 17 4
40 18 2
40 19 1
40 20 4
40 21 5
40 22 5
40 23 2
40 24 4
40 25 5
40 26 5
40 27 3
40 28 5
40 29 5
40 30 5
40 31 2
40 32 1
40 33 5
40 34 1
40 35 2
40 36 5
40 37 5
40 38 1
40 39 5
41 0 5
41 1 3
41 2 4
41 3 3
41 4 1
41 5 4
41 6 4
41 7 3
41 8 1
41 9 5
41 10 4
41 11 3
41 12 1
41 13 5
41 14 1
41 15 3
41 16 3
41 17 4
41 18 3
41 19 1
41 20 2
41 21 2
41 22 5
41 23 4
41 24 5
41 25 1
41 26 1
41 27 4
41 28 4
41 29 4
41 30 1
41 31 4
41 32 4
41 33 4
41 34 5
41 35 3
41 36 4
41 37 5
41 38 2
41 39 5
41 40 4
42 0 5
42 1 5
42 2 5
42 3 1
42 4 5
42 5 4
42 6 2
42 7 2
42 8 2
42 9 3
42 10 2
42 11 3
42 12 5
42 13 3
42 14 5
42 15 1
42 16 2
42 17 3
42 18 5
42 19 3
42 20 2
42 21 5
42 22 2
42 23 2
42 24 3
42 25 1
42 26 3
42 27 5
42 28 3
42 29 2
42 30 1
42 31 2
42 32 4
42 33 2
42 34 3
42 35 5
42 36 3
42 37 3
42 38 3
42 39 4
42 40 1
42 41 5
43 0 5
43 1 1
43 2 5
43 3 3
43 4 2
43 5 4
43 6 5
43 7 2
43 8 4
43 9 2
43 10 4
43 11 5
43 12 2
43 13 5
43 14 1
43 15 4
43 16 4
43 17 5
43 18 3
43 19 5
43 20 4
43 21 1
43 22 1
43 23 3
43 24 5
43 25 1
43 26 1
43 27 4
43 28 4
43 29 5
43 30 4
43 31 1
43 32 1
43 33 4
43 34 1
43 35 3
43 36 3
43 37 2
43 38 4
43 39 5
43 40 1
43 41 2
43 42 3
44 0 4
44 1 5
44 2 1
44 3 2
44 4 2
44 5 4
44 6 3
44 7 3
44 8 1
44 9 5
44 10 3
44 11 3
44 12 5
44 13 2
44 14 4
44 15 2
44 16 1
44 17 4
44 18 5
44 19 4
44 20 4
44 21 5
44 22 5
44 23 2
44 24 1
44 25 1
44 26 4
44 27 4
44 28 5
44 29 3
44 30 4
44 31 5
44 32 3
44 33 4
44 34 5
44 35 1
44 36 5
44 37 4
44 38 4
44 39 4
44 40 1
44 41 2
44 42 1
44 43 2
45 0 2
45 1 4
45 2 3
45 3 3
45 4 2
45 5 4
45 6 5
45 7 3
45 8 2
45 9 4
45 10 5
45 11 2
45 12 2
45 13 5
45 14 4
45 15 5
45 16 1
45 17 3
45 18 3
45 19 1
45 20 2
45 21 3
45 22 3
45 23 5
45 24 4
45 25 1
45 26 4
45 27 3
45 28 1
45 29 1
45 30 2
45 31 4
45 32 5
45 33 5
45 34 1
45 35 4
45 36 4
45 37 1
45 38 3
45 39 5
45 40 4
45 41 3
45 42 3
45 43 1
45 44 1
46 0 1
46 1 2
46 2 4
46 3 1
46 4 2
46 5 1
46 6 2
46 7 4
46 8 2
46 9 2
46 10 4
46 11 1
46 12 5
46 13 4
46 14 2
46 15 4
46 16 3
46 17 3
46 18 2
46 19 2
46 20 2
46 21 3
46 22 5
46 23 1
46 24 1
46 25 5
46 26 4
46 27 2
46 28 4
46 29 2
46 30 3
46 31 1
46 32 1
46 33 4
46 34 1
46 35 3
46 36 3
46 37 2
46 38 2
46 39 4
46 40 1
46 41 3
46 42 5
46 43 3
46 44 2
46 45 2
47 0 4
47 1 1
47 2 4
47 3 3
47 4 1
47 5 1
47 6 2
47 7 5
47 8 1
47 9 5
47 10 5
47 11 5
47 12 5
47 13 1
47 14 5
47 15 3
47 16 4
47 17 1
47 18 4
47 19 5
47 20 2
47 21 5
47 22 3
47 23 5
47 24 3
47 25 1
47 26 4
47 27 3
47 28 3
47 29 1
47 30 1
47 31 5
47 32 2
47 33 4
47 34 4
47 35 3
47 36 4
47 37 3
47 38 3
47 39 3
47 40 5
47 41 5
47 42 4
47 43 3
47 44 5
47 45 4
47 46 4
48 0 2
48 1 4
48 2 2
48 3 3
48 4 1
48 5 1
48 6 2
48 7 1
48 8 5
48 9 2
48 10 3
48 11 5
48 12 5
48 13 2
48 14 3
48 15 5
48 16 3
48 17 1
48 18 5
48 19 3
48 20 4
48 21 1
48 22 4
48 23 2
48 24 4
48 25 4
48 26 5
48 27 5
48 28 3
48 29 4
48 30 4
48 31 4
48 32 2
48 33 5
48 34 2
48 35 4
48 36 3
48 37 5
48 38 4
48 39 2
48 40 2
48 41 1
48 42 2
48 43 3
48 44 1
48 45 1
48 46 2
48 47 5
49 0 2
49 1 1
49 2 2
49 3 2
49 4 5
49 5 5
49 6 5
49 7 5
49 8 2
49 9 1
49 10 2
49 11 1
49 12 2
49 13 3
49 14 5
49 15 5
49 16 5
49 17 1
49 18 4
49 19 2
49 20 4
49 21 3
49 22 1
49 23 2
49 24 3
49 25 5
49 26 3
49 27 2
49 28 1
49 29 1
49 30 3
49 31 4
49 32 4
49 33 3
49 34 3
49 35 3
49 36 4
49 37 4
49 38 4
49 39 4
49 40 1
49 41 3
49 42 2
49 43 1
49 44 1
49 45 2
49 46 5
49 47 5
49 48 4
50 0 1
50 1 2
50 2 2
50 3 2
50 4 5
50 5 4
50 6 4
50 7 4
50 8 4
50 9 4
50 10 2
50 11 1
50 12 4
50 13 4
50 14 4
50 15 5
50 16 2
50 17 2
50 18 2
50 19 2
50 20 3
50 21 5
50 22 2
50 23 4
50 24 3
50 25 3
50 26 2
50 27 3
50 28 3
50 29 2
50 30 1
50 31 5
50 32 1
50 33 5
50 34 3
50 35 3
50 36 4
50 37 2
50 38 1
50 39 1
50 40 2
50 41 2
50 42 5
50 43 5
50 44 2
50 45 1
50 46 4
50 47 5
50 48 3
50 49 4
51 0 3
51 1 5
51 2 2
51 3 5
51 4 2
51 5 3
51 6 4
51 7 4
51 8 2
51 9 3
51 10 2
51 11 2
51 12 3
51 13 3
51 14 3
51 15 2
51 16 5
51 17 3
51 18 2
51 19 3
51 20 4
51 21 3
51 22 1
51 23 2
51 24 3
51 25 3
51 26 1
51 27 5
51 28 5
51 29 3
51 30 1
51 31 1
51 32 4
51 33 2
51 34 1
51 35 2
51 36 3
51 37 1
51 38 5
51 39 4
51 40 2
51 41 3
51 42 4
51 43 2
51 44 5
51 45 3
51 46 2
51 47 4
51 48 3
51 49 4
51 50 1
52 0 5
52 1 1
52 2 1
52 3 3
52 4 3
52 5 5
52 6 3
52 7 4
52 8 2
52 9 5
52 10 5
52 11 2
52 12 4
52 13 1
52 14 2
52 15 5
52 16 4
52 17 1
52 18 3
52 19 2
52 20 3
52 21 1
52 22 2
52 23 3
52 24 2
52 25 4
52 26 2
52 27 5
52 28 3
52 29 4
52 30 2
52 31 3
52 32 4
52 33 2
52 34 4
52 35 1
52 36 5
52 37 5
52 38 3
52 39 2
52 40 2
52 41 3
52 42 5
52 43 2
52 44 4
52 45 1
52 46 5
52 47 3
52 48 3
52 49 4
52 50 5
52 51 4
53 0 1
53 1 1
53 2 4
53 3 2
53 4 1
53 5 1
53 6 2
53 7 2
53 8 2
53 9 5
53 10 4
53 11 1
53 12 1
53 13 5
53 14 4
53 15 1
53 16 3
53 17 1
53 18 1
53 19 2
53 20 4
53 21 3
53 22 2
53 23 5
53 24 3
53 25 4
53 26 5
53 27 2
53 28 2
53 29 2
53 30 1
53 31 4
53 32 2
53 33 3
53 34 4
53 35 5
53 36 3
53 37 2
53 38 1
53 39 3
53 40 4
53 41 4
53 42 5
53 43 3
53 44 1
53 45 3
53 46 2
53 47 3
53 48 1
53 49 5
53 50 2
53 51 2
53 52 1
54 0 3
54 1 2
54 2 3
54 3 2
54 4 1
54 5 4
54 6 2
54 7 4
54 8 4
54 9 1
54 10 1
54 11 4
54 12 5
54 13 5
54 14 1
54 15 2
54 16 2
54 17 1
54 18 3
54 19 5
54 20 3
54 21 3
54 22 5
54 23 2
54 24 5
54 25 1
54 26 1
54 27 4
54 28 4
54 29 4
54 30 3
54 31 4
54 32 5
54 33 5
54 34 5
54 35 2
54 36 3
54 37 3
54 38 2
54 39 3
54 40 5
54 41 5
54 42 5
54 43 5
54 44 4
54 45 2
54 46 4
54 47 3
54 48 4
54 49 5
54 50 4
54 51 3
54 52 5
54 53 4
55 0 3
55 1 3
55 2 2
55 3 1
55 4 4
55 5 1
55 6 1
55 7 4
55 8 4
55 9 1
55 10 4
55 11 1
55 12 2
55 13 2
55 14 5
55 15 1
55 16 2
55 17 5
55 18 4
55 19 4
55 20 4
55 21 1
55 22 2
55 23 2
55 24 1
55 25 5
55 26 3
55 27 2
55 28 3
55 29 3
55 30 2
55 31 3
55 32 4
55 33 2
55 34 3
55 35 4
55 36 2
55 37 3
55 38 1
55 39 5
55 40 5
55 41 5
55 42 4
55 43 3
55 44 3
55 45 1
55 46 2
55 47 4
55 48 4
55 49 5
55 50 5
55 51 2
55 52 1
55 53 2
55 54 2
56 0 2
56 1 3
56 2 3
56 3 1
56 4 3
56 5 1
56 6 3
56 7 1
56 8 1
56 9 1
56 10 5
56 11 1
56 12 5
56 13 4
56 14 1
56 15 2
56 16 5
56 17 2
56 18 1
56 19 4
56 20 3
56 21 2
56 22 5
56 23 2
56 24 3
56 25 1
56 26 2
56 27 1
56 28 5
56 29 3
56 30 1
56 31 5
56 32 1
56 33 3
56 34 4
56 35 3
56 36 3
56 37 4
56 38 4
56 39 2
56 40 1
56 41 2
56 42 3
56 43 4
56 44 4
56 45 5
56 46 2
56 47 1
56 48 3
56 49 2
56 50 1
56 51 2
56 52 3
56 53 2
56 54 2
56 55 1
57 0 4
57 1 3
57 2 3
57 3 3
57 4 1
57 5 4
57 6 3
57 7 5
57 8 5
57 9 4
57 10 1
57 11 5
57 12 4
57 13 5
57 14 5
57 15 1
57 16 2
57 17 1
57 18 1
57 19 5
57 20 5
57 21 4
57 22 1
57 23 1
57 24 3
57 25 3
57 26 1
57 27 3
57 28 1
57 29 3
57 30 4
57 31 4
57 32 1
57 33 4
57 34 5
57 35 3
57 36 2
57 37 1
57 38 5
57 39 4
57 40 4
57 41 2
57 42 5
57 43 3
57 44 1
57 45 4
57 46 1
57 47 2
57 48 3
57 49 1
57 50 4
57 51 5
57 52 4
57 53 1
57 54 5
57 55 1
57 56 1
58 0 5
58 1 3
58 2 5
58 3 4
58 4 5
58 5 1
58 6 2
58 7 4
58 8 4
58 9 4
58 10 3
58 11 3
58 12 4
58 13 5
58 14 4
58 15 2
58 16 4
58 17 5
58 18 3
58 19 2
58 20 1
58 21 3
58 22 2
58 23 5
58 24 5
58 25 3
58 26 3
58 27 4
58 28 5
58 29 1
58 30 5
58 31 5
58 32 1
58 33 5
58 34 5
58 35 3
58 36 4
58 37 4
58 38 3
58 39 5
58 40 5
58 41 1
58 42 1
58 43 5
58 44 4
58 45 4
58 46 1
58 47 1
58 48 1
58 49 4
58 50 2
58 51 2
58 52 5
58 53 5
58 54 5
58 55 2
58 56 4
58 57 4
59 0 3
59 1 4
59 2 2
59 3 4
59 4 2
59 5 5
59 6 2
59 7 2
59 8 2
59 9 1
59 10 4
59 11 5
59 12 3
59 13 3
59 14 1
59 15 4
59 16 5
59 17 4
59 18 3
59 19 1
59 20 5
59 21 4
59 22 4
59 23 1
59 24 2
59 25 5
59 26 3
59 27 4
59 28 2
59 29 3
59 30 3
59 31 3
59 32 3
59 33 4
59 34 1
59 35 2
59 36 2
59 37 3
59 38 2
59 39 3
59 40 2
59 41 5
59 42 4
59 43 4
59 44 5
59 45 3
59 46 3
59 47 4
59 48 5
59 49 5
59 50 4
59 51 1
59 52 3
59 53 3
59 54 1
59 55 3
59 56 2
59 57 1
59 58 3
60 0 3
60 1 4
60 2 1
60 3 2
60 4 4
60 5 2
60 6 2
60 7 3
60 8 4
60 9 3
60 10 5
60 11 2
60 12 2
60 13 3
60 14 4
60 15 2
60 16 1
60 17 2
60 18 1
60 19 5
60 20 5
60 21 2
60 22 4
60 23 2
60 24 4
60 25 1
60 26 4
60 27 4
60 28 2
60 29 5
60 30 4
60 31 1
60 32 5
60 33 2
60 34 1
60 35 4
60 36 1
60 37 1
60 38 4
60 39 3
60 40 2
60 41 1
60 42 3
60 43 4
60 44 1
60 45 5
60 46 4
60 47 3
60 48 2
60 49 4
60 50 4
60 51 4
60 52 2
60 53 1
60 54 3
60 55 4
60 56 4
60 57 5
60 58 4
60 59 3
61 0 3
61 1 3
61 2 4
61 3 1
61 4 5
61 5 5
61 6 4
61 7 4
61 8 3
61 9 2
61 10 4
61 11 2
61 12 5
61 13 1
61 14 2
61 15 2
61 16 1
61 17 1
61 18 3
61 19 3
61 20 5
61 21 2
61 22 4
61 23 2
61 24 4
61 25 3
61 26 1
61 27 2
61 28 3
61 29 5
61 30 3
61 31 3
61 32 5
61 33 4
61 34 3
61 35 1
61 36 3
61 37 4
61 38 5
61 39 3
61 40 2
61 41 2
61 42 4
61 43 1
61 44 2
61 45 5
61 46 5
61 47 1
61 48 4
61 49 2
61 50 4
61 51 1
61 52 5
61 53 4
61 54 4
61 55 5
61 56 1
61 57 1
61 58 3
61 59 5
61 60 2
62 0 5
62 1 4
62 2 4
62 3 1
62 4 1
62 5 1
62 6 5
62 7 3
62 8 1
62 9 3
62 10 4
62 11 3
62 12 3
62 13 2
62 14 3
62 15 1
62 16 4
62 17 4
62 18 3
62 19 2
62 20 3
62 21 1
62 22 1
62 23 5
62 24 4
62 25 4
62 26 5
62 27 2
62 28 3
62 29 1
62 30 1
62 31 4
62 32 2
62 33 4
62 34 5
62 35 1
62 36 4
62 37 2
62 38 4
62 39 5
62 40 4
62 41 2
62 42 3
62 43 3
62 44 3
62 45 5
62 46 2
62 47 3
62 48 2
62 49 4
62 50 5
62 51 4
62 52 5
62 53 3
62 54 3
62 55 1
62 56 3
62 57 3
62 58 4
62 59 2
62 60 4
62 61 5
63 0 3
63 1 5
63 2 2
63 3 2
63 4 5
63 5 3
63 6 3
63 7 2
63 8 2
63 9 2
63 10 2
63 11 3
63 12 4
63 13 4
63 14 2
63 15 5
63 16 4
63 17 1
63 18 3
63 19 5
63 20 4
63 21 2
63 22 4
63 23 3
63 24 4
63 25 5
63 26 3
63 27 1
63 28 3
63 29 2
63 30 3
63 31 3
63 32 3
63 33 2
63 34 5
63 35 2
63 36 1
63 37 4
63 38 3
63 39 2
63 40 2
63 41 2
63 42 5
63 43 3
63 44 4
63 45 3
63 46 5
63 47 1
63 48 2
63 49 5
63 50 5
63 51 2
63 52 2
63 53 3
63 54 1
63 55 1
63 56 5
63 57 5
63 58 2
63 59 2
63 60 4
63 61 4
63 62 4
64 0 5
64 1 3
64 2 3
64 3 1
64 4 1
64 5 3
64 6 1
64 7 1
64 8 3
64 9 3
64 10 2
64 11 2
64 12 3
64 13 2
64 14 1
64 15 1
64 16 3
64 17 2
64 18 4
64 19 2
64 20 3
64 21 5
64 22 3
64 23 1
64 24 1
64 25 3
64 26 1
64 27 5
64 28 1
64 29 3
64 30 1
64 31 2
64 32 4
64 33 2
64 34 5
64 35 1
64 36 3
64 37 5
64 38 4
64 39 4
64 40 4
64 41 4
64 42 2
64 43 3
64 44 4
64 45 1
64 46 1
64 47 5
64 48 4
64 49 3
64 50 5
64 51 1
64 52 4
64 53 1
64 54 1
64 55 5
64 56 3
64 57 4
64 58 4
64 59 5
64 60 5
64 61 1
64 62 4
64 63 3
